p wcnf 469 1276
w -2 0.367879 0
w 2 2.718282 0
w -3 0.367879 0
w 3 2.718282 0
w -4 0.367879 0
w 4 2.718282 0
w -5 0.367879 0
w 5 2.718282 0
w -6 0.367879 0
w 6 2.718282 0
w -7 0.367879 0
w 7 2.718282 0
w -9 0.367879 0
w 9 2.718282 0
w -10 0.367879 0
w 10 2.718282 0
w -11 0.367879 0
w 11 2.718282 0
w -13 0.367879 0
w 13 2.718282 0
w -14 0.367879 0
w 14 2.718282 0
w -15 0.367879 0
w 15 2.718282 0
w -17 0.367879 0
w 17 2.718282 0
w -18 0.367879 0
w 18 2.718282 0
w -19 0.367879 0
w 19 2.718282 0
w -20 0.367879 0
w 20 2.718282 0
w -21 0.367879 0
w 21 2.718282 0
w -22 0.367879 0
w 22 2.718282 0
w -23 0.367879 0
w 23 2.718282 0
w -25 0.367879 0
w 25 2.718282 0
w -26 0.367879 0
w 26 2.718282 0
w -27 0.367879 0
w 27 2.718282 0
w -28 0.367879 0
w 28 2.718282 0
w -29 0.367879 0
w 29 2.718282 0
w -30 0.367879 0
w 30 2.718282 0
w -31 0.367879 0
w 31 2.718282 0
w -33 0.367879 0
w 33 2.718282 0
w -34 0.367879 0
w 34 2.718282 0
w -35 0.367879 0
w 35 2.718282 0
w -36 0.367879 0
w 36 2.718282 0
w -37 0.367879 0
w 37 2.718282 0
w -39 0.367879 0
w 39 2.718282 0
w -40 0.367879 0
w 40 2.718282 0
w -42 0.367879 0
w 42 2.718282 0
w -43 0.367879 0
w 43 2.718282 0
w -44 0.367879 0
w 44 2.718282 0
w -46 0.367879 0
w 46 2.718282 0
w -47 0.367879 0
w 47 2.718282 0
w -48 0.367879 0
w 48 2.718282 0
w -49 0.367879 0
w 49 2.718282 0
w -50 0.367879 0
w 50 2.718282 0
w -51 0.367879 0
w 51 2.718282 0
w -53 0.367879 0
w 53 2.718282 0
w -54 0.367879 0
w 54 2.718282 0
w -56 0.367879 0
w 56 2.718282 0
w -57 0.367879 0
w 57 2.718282 0
w -58 0.367879 0
w 58 2.718282 0
w -59 0.367879 0
w 59 2.718282 0
w -60 0.367879 0
w 60 2.718282 0
w -62 0.367879 0
w 62 2.718282 0
w -63 0.367879 0
w 63 2.718282 0
w -64 0.367879 0
w 64 2.718282 0
w -65 0.367879 0
w 65 2.718282 0
w -67 0.367879 0
w 67 2.718282 0
w -68 0.367879 0
w 68 2.718282 0
w -69 0.367879 0
w 69 2.718282 0
w -70 0.367879 0
w 70 2.718282 0
w -71 0.367879 0
w 71 2.718282 0
w -72 0.367879 0
w 72 2.718282 0
w -74 0.367879 0
w 74 2.718282 0
w -75 0.367879 0
w 75 2.718282 0
w -76 0.367879 0
w 76 2.718282 0
w -78 0.367879 0
w 78 2.718282 0
w -79 0.367879 0
w 79 2.718282 0
w -82 0.367879 0
w 82 2.718282 0
w -83 0.367879 0
w 83 2.718282 0
w -84 0.367879 0
w 84 2.718282 0
w -85 0.367879 0
w 85 2.718282 0
w -86 0.367879 0
w 86 2.718282 0
w -87 0.367879 0
w 87 2.718282 0
w -88 0.367879 0
w 88 2.718282 0
w -89 0.367879 0
w 89 2.718282 0
w -90 0.367879 0
w 90 2.718282 0
w -91 0.367879 0
w 91 2.718282 0
w -93 0.367879 0
w 93 2.718282 0
w -94 0.367879 0
w 94 2.718282 0
w -95 0.367879 0
w 95 2.718282 0
w -96 0.367879 0
w 96 2.718282 0
w -97 0.367879 0
w 97 2.718282 0
w -98 0.367879 0
w 98 2.718282 0
w -100 0.367879 0
w 100 2.718282 0
w -101 0.367879 0
w 101 2.718282 0
w -103 0.367879 0
w 103 2.718282 0
w -104 0.367879 0
w 104 2.718282 0
w -105 0.367879 0
w 105 2.718282 0
w -106 0.367879 0
w 106 2.718282 0
w -108 0.367879 0
w 108 2.718282 0
w -109 0.367879 0
w 109 2.718282 0
w -110 0.367879 0
w 110 2.718282 0
w -111 0.367879 0
w 111 2.718282 0
w -112 0.367879 0
w 112 2.718282 0
w -114 0.367879 0
w 114 2.718282 0
w -115 0.367879 0
w 115 2.718282 0
w -116 0.367879 0
w 116 2.718282 0
w -117 0.367879 0
w 117 2.718282 0
w -119 0.367879 0
w 119 2.718282 0
w -120 0.367879 0
w 120 2.718282 0
w -121 0.367879 0
w 121 2.718282 0
w -123 0.367879 0
w 123 2.718282 0
w -124 0.367879 0
w 124 2.718282 0
w -126 0.367879 0
w 126 2.718282 0
w -127 0.367879 0
w 127 2.718282 0
w -128 0.367879 0
w 128 2.718282 0
w -129 0.367879 0
w 129 2.718282 0
w -130 0.367879 0
w 130 2.718282 0
w -132 0.367879 0
w 132 2.718282 0
w -133 0.367879 0
w 133 2.718282 0
w -134 0.367879 0
w 134 2.718282 0
w -135 0.367879 0
w 135 2.718282 0
w -136 0.367879 0
w 136 2.718282 0
w -138 0.367879 0
w 138 2.718282 0
w -139 0.367879 0
w 139 2.718282 0
w -140 0.367879 0
w 140 2.718282 0
w -141 0.367879 0
w 141 2.718282 0
w -142 0.367879 0
w 142 2.718282 0
w -143 0.367879 0
w 143 2.718282 0
w -144 0.367879 0
w 144 2.718282 0
w -147 0.367879 0
w 147 2.718282 0
w -150 0.367879 0
w 150 2.718282 0
w -151 0.367879 0
w 151 2.718282 0
w -153 0.367879 0
w 153 2.718282 0
w -154 0.367879 0
w 154 2.718282 0
w -155 0.367879 0
w 155 2.718282 0
w -156 0.367879 0
w 156 2.718282 0
w -158 0.367879 0
w 158 2.718282 0
w -159 0.367879 0
w 159 2.718282 0
w -161 0.367879 0
w 161 2.718282 0
w -162 0.367879 0
w 162 2.718282 0
w -163 0.367879 0
w 163 2.718282 0
w -164 0.367879 0
w 164 2.718282 0
w -165 0.367879 0
w 165 2.718282 0
w -166 0.367879 0
w 166 2.718282 0
w -168 0.367879 0
w 168 2.718282 0
w -169 0.367879 0
w 169 2.718282 0
w -170 0.367879 0
w 170 2.718282 0
w -172 0.367879 0
w 172 2.718282 0
w -173 0.367879 0
w 173 2.718282 0
w -175 0.367879 0
w 175 2.718282 0
w -176 0.367879 0
w 176 2.718282 0
w -178 0.367879 0
w 178 2.718282 0
w -179 0.367879 0
w 179 2.718282 0
w -180 0.367879 0
w 180 2.718282 0
w -181 0.367879 0
w 181 2.718282 0
w -182 0.367879 0
w 182 2.718282 0
w -184 0.367879 0
w 184 2.718282 0
w -185 0.367879 0
w 185 2.718282 0
w -187 0.367879 0
w 187 2.718282 0
w -188 0.367879 0
w 188 2.718282 0
w -189 0.367879 0
w 189 2.718282 0
w -190 0.367879 0
w 190 2.718282 0
w -192 0.367879 0
w 192 2.718282 0
w -193 0.367879 0
w 193 2.718282 0
w -194 0.367879 0
w 194 2.718282 0
w -196 0.367879 0
w 196 2.718282 0
w -197 0.367879 0
w 197 2.718282 0
w -198 0.367879 0
w 198 2.718282 0
w -199 0.367879 0
w 199 2.718282 0
w -201 0.367879 0
w 201 2.718282 0
w -202 0.367879 0
w 202 2.718282 0
w -203 0.367879 0
w 203 2.718282 0
w -204 0.367879 0
w 204 2.718282 0
w -205 0.367879 0
w 205 2.718282 0
w -207 0.367879 0
w 207 2.718282 0
w -208 0.367879 0
w 208 2.718282 0
w -209 0.367879 0
w 209 2.718282 0
w -210 0.367879 0
w 210 2.718282 0
w -211 0.367879 0
w 211 2.718282 0
w -213 0.367879 0
w 213 2.718282 0
w -214 0.367879 0
w 214 2.718282 0
w -215 0.367879 0
w 215 2.718282 0
w -216 0.367879 0
w 216 2.718282 0
w -218 0.367879 0
w 218 2.718282 0
w -219 0.367879 0
w 219 2.718282 0
w -220 0.367879 0
w 220 2.718282 0
w -221 0.367879 0
w 221 2.718282 0
w -223 0.367879 0
w 223 2.718282 0
w -224 0.367879 0
w 224 2.718282 0
w -226 0.367879 0
w 226 2.718282 0
w -227 0.367879 0
w 227 2.718282 0
w -229 0.367879 0
w 229 2.718282 0
w -230 0.367879 0
w 230 2.718282 0
w -231 0.367879 0
w 231 2.718282 0
w -232 0.367879 0
w 232 2.718282 0
w -234 0.367879 0
w 234 2.718282 0
w -235 0.367879 0
w 235 2.718282 0
w -236 0.367879 0
w 236 2.718282 0
w -237 0.367879 0
w 237 2.718282 0
w -238 0.367879 0
w 238 2.718282 0
w -240 0.367879 0
w 240 2.718282 0
w -242 0.367879 0
w 242 2.718282 0
w -244 0.367879 0
w 244 2.718282 0
w -245 0.367879 0
w 245 2.718282 0
w -246 0.367879 0
w 246 2.718282 0
w -247 0.367879 0
w 247 2.718282 0
w -248 0.367879 0
w 248 2.718282 0
w -250 0.367879 0
w 250 2.718282 0
w -251 0.367879 0
w 251 2.718282 0
w -252 0.367879 0
w 252 2.718282 0
w -253 0.367879 0
w 253 2.718282 0
w -254 0.367879 0
w 254 2.718282 0
w -256 0.367879 0
w 256 2.718282 0
w -258 0.367879 0
w 258 2.718282 0
w -259 0.367879 0
w 259 2.718282 0
w -260 0.367879 0
w 260 2.718282 0
w -262 0.367879 0
w 262 2.718282 0
w -263 0.367879 0
w 263 2.718282 0
w -264 0.367879 0
w 264 2.718282 0
w -265 0.367879 0
w 265 2.718282 0
w -266 0.367879 0
w 266 2.718282 0
w -268 0.367879 0
w 268 2.718282 0
w -270 0.367879 0
w 270 2.718282 0
w -272 0.367879 0
w 272 2.718282 0
w -274 0.367879 0
w 274 2.718282 0
w -275 0.367879 0
w 275 2.718282 0
w -277 0.367879 0
w 277 2.718282 0
w -279 0.367879 0
w 279 2.718282 0
w -280 0.367879 0
w 280 2.718282 0
w -282 0.367879 0
w 282 2.718282 0
w -283 0.367879 0
w 283 2.718282 0
w -284 0.367879 0
w 284 2.718282 0
w -285 0.367879 0
w 285 2.718282 0
w -286 0.367879 0
w 286 2.718282 0
w -288 0.367879 0
w 288 2.718282 0
w -289 0.367879 0
w 289 2.718282 0
w -291 0.367879 0
w 291 2.718282 0
w -292 0.367879 0
w 292 2.718282 0
w -293 0.367879 0
w 293 2.718282 0
w -294 0.367879 0
w 294 2.718282 0
w -296 0.367879 0
w 296 2.718282 0
w -297 0.367879 0
w 297 2.718282 0
w -298 0.367879 0
w 298 2.718282 0
w -302 0.367879 0
w 302 2.718282 0
w -304 0.367879 0
w 304 2.718282 0
w -305 0.367879 0
w 305 2.718282 0
w -307 0.367879 0
w 307 2.718282 0
w -308 0.367879 0
w 308 2.718282 0
w -310 0.367879 0
w 310 2.718282 0
w -311 0.367879 0
w 311 2.718282 0
w -312 0.367879 0
w 312 2.718282 0
w -315 0.367879 0
w 315 2.718282 0
w -316 0.367879 0
w 316 2.718282 0
w -317 0.367879 0
w 317 2.718282 0
w -319 0.367879 0
w 319 2.718282 0
w -320 0.367879 0
w 320 2.718282 0
w -321 0.367879 0
w 321 2.718282 0
w -323 0.367879 0
w 323 2.718282 0
w -325 0.367879 0
w 325 2.718282 0
w -328 0.367879 0
w 328 2.718282 0
w -329 0.367879 0
w 329 2.718282 0
w -331 0.367879 0
w 331 2.718282 0
w -332 0.367879 0
w 332 2.718282 0
w -333 0.367879 0
w 333 2.718282 0
w -336 0.367879 0
w 336 2.718282 0
w -337 0.367879 0
w 337 2.718282 0
w -339 0.367879 0
w 339 2.718282 0
w -341 0.367879 0
w 341 2.718282 0
w -342 0.367879 0
w 342 2.718282 0
w -343 0.367879 0
w 343 2.718282 0
w -345 0.367879 0
w 345 2.718282 0
w -346 0.367879 0
w 346 2.718282 0
w -348 0.367879 0
w 348 2.718282 0
w -350 0.367879 0
w 350 2.718282 0
w -351 0.367879 0
w 351 2.718282 0
w -352 0.367879 0
w 352 2.718282 0
w -353 0.367879 0
w 353 2.718282 0
w -355 0.367879 0
w 355 2.718282 0
w -356 0.367879 0
w 356 2.718282 0
w -360 0.367879 0
w 360 2.718282 0
w -362 0.367879 0
w 362 2.718282 0
w -364 0.367879 0
w 364 2.718282 0
w -365 0.367879 0
w 365 2.718282 0
w -367 0.367879 0
w 367 2.718282 0
w -368 0.367879 0
w 368 2.718282 0
w -369 0.367879 0
w 369 2.718282 0
w -371 0.367879 0
w 371 2.718282 0
w -372 0.367879 0
w 372 2.718282 0
w -373 0.367879 0
w 373 2.718282 0
w -377 0.367879 0
w 377 2.718282 0
w -379 0.367879 0
w 379 2.718282 0
w -380 0.367879 0
w 380 2.718282 0
w -381 0.367879 0
w 381 2.718282 0
w -382 0.367879 0
w 382 2.718282 0
w -383 0.367879 0
w 383 2.718282 0
w -388 0.367879 0
w 388 2.718282 0
w -391 0.367879 0
w 391 2.718282 0
w -392 0.367879 0
w 392 2.718282 0
w -393 0.367879 0
w 393 2.718282 0
w -394 0.367879 0
w 394 2.718282 0
w -396 0.367879 0
w 396 2.718282 0
w -397 0.367879 0
w 397 2.718282 0
w -398 0.367879 0
w 398 2.718282 0
w -400 0.367879 0
w 400 2.718282 0
w -401 0.367879 0
w 401 2.718282 0
w -402 0.367879 0
w 402 2.718282 0
w -404 0.367879 0
w 404 2.718282 0
w -405 0.367879 0
w 405 2.718282 0
w -407 0.367879 0
w 407 2.718282 0
w -409 0.367879 0
w 409 2.718282 0
w -411 0.367879 0
w 411 2.718282 0
w -414 0.367879 0
w 414 2.718282 0
w -416 0.367879 0
w 416 2.718282 0
w -418 0.367879 0
w 418 2.718282 0
w -419 0.367879 0
w 419 2.718282 0
w -421 0.367879 0
w 421 2.718282 0
w -422 0.367879 0
w 422 2.718282 0
w -426 0.367879 0
w 426 2.718282 0
w -427 0.367879 0
w 427 2.718282 0
w -428 0.367879 0
w 428 2.718282 0
w -430 0.367879 0
w 430 2.718282 0
w -435 0.367879 0
w 435 2.718282 0
w -436 0.367879 0
w 436 2.718282 0
w -438 0.367879 0
w 438 2.718282 0
w -441 0.367879 0
w 441 2.718282 0
w -443 0.367879 0
w 443 2.718282 0
w -444 0.367879 0
w 444 2.718282 0
w -447 0.367879 0
w 447 2.718282 0
w -450 0.367879 0
w 450 2.718282 0
w -455 0.367879 0
w 455 2.718282 0
w -463 0.367879 0
w 463 2.718282 0
2 1 102 0
2 -1 -102 0
-2 1 -102 0
-2 -1 102 0
3 1 157 0
3 -1 -157 0
-3 1 -157 0
-3 -1 157 0
4 1 281 0
4 -1 -281 0
-4 1 -281 0
-4 -1 281 0
5 1 417 0
5 -1 -417 0
-5 1 -417 0
-5 -1 417 0
6 1 452 0
6 -1 -452 0
-6 1 -452 0
-6 -1 452 0
7 1 457 0
7 -1 -457 0
-7 1 -457 0
-7 -1 457 0
9 8 206 0
9 -8 -206 0
-9 8 -206 0
-9 -8 206 0
10 8 217 0
10 -8 -217 0
-10 8 -217 0
-10 -8 217 0
11 8 269 0
11 -8 -269 0
-11 8 -269 0
-11 -8 269 0
13 12 55 0
13 -12 -55 0
-13 12 -55 0
-13 -12 55 0
14 12 146 0
14 -12 -146 0
-14 12 -146 0
-14 -12 146 0
15 12 222 0
15 -12 -222 0
-15 12 -222 0
-15 -12 222 0
17 16 212 0
17 -16 -212 0
-17 16 -212 0
-17 -16 212 0
18 16 322 0
18 -16 -322 0
-18 16 -322 0
-18 -16 322 0
19 16 335 0
19 -16 -335 0
-19 16 -335 0
-19 -16 335 0
20 16 340 0
20 -16 -340 0
-20 16 -340 0
-20 -16 340 0
21 16 390 0
21 -16 -390 0
-21 16 -390 0
-21 -16 390 0
22 16 424 0
22 -16 -424 0
-22 16 -424 0
-22 -16 424 0
23 16 440 0
23 -16 -440 0
-23 16 -440 0
-23 -16 440 0
25 24 107 0
25 -24 -107 0
-25 24 -107 0
-25 -24 107 0
26 24 271 0
26 -24 -271 0
-26 24 -271 0
-26 -24 271 0
27 24 287 0
27 -24 -287 0
-27 24 -287 0
-27 -24 287 0
28 24 354 0
28 -24 -354 0
-28 24 -354 0
-28 -24 354 0
29 24 374 0
29 -24 -374 0
-29 24 -374 0
-29 -24 374 0
30 24 399 0
30 -24 -399 0
-30 24 -399 0
-30 -24 399 0
31 24 456 0
31 -24 -456 0
-31 24 -456 0
-31 -24 456 0
33 32 228 0
33 -32 -228 0
-33 32 -228 0
-33 -32 228 0
34 32 269 0
34 -32 -269 0
-34 32 -269 0
-34 -32 269 0
35 32 338 0
35 -32 -338 0
-35 32 -338 0
-35 -32 338 0
36 32 375 0
36 -32 -375 0
-36 32 -375 0
-36 -32 375 0
37 32 461 0
37 -32 -461 0
-37 32 -461 0
-37 -32 461 0
39 38 276 0
39 -38 -276 0
-39 38 -276 0
-39 -38 276 0
40 38 385 0
40 -38 -385 0
-40 38 -385 0
-40 -38 385 0
42 41 148 0
42 -41 -148 0
-42 41 -148 0
-42 -41 148 0
43 41 403 0
43 -41 -403 0
-43 41 -403 0
-43 -41 403 0
44 41 446 0
44 -41 -446 0
-44 41 -446 0
-44 -41 446 0
46 45 137 0
46 -45 -137 0
-46 45 -137 0
-46 -45 137 0
47 45 222 0
47 -45 -222 0
-47 45 -222 0
-47 -45 222 0
48 45 306 0
48 -45 -306 0
-48 45 -306 0
-48 -45 306 0
49 45 395 0
49 -45 -395 0
-49 45 -395 0
-49 -45 395 0
50 45 453 0
50 -45 -453 0
-50 45 -453 0
-50 -45 453 0
51 45 454 0
51 -45 -454 0
-51 45 -454 0
-51 -45 454 0
53 52 152 0
53 -52 -152 0
-53 52 -152 0
-53 -52 152 0
54 52 326 0
54 -52 -326 0
-54 52 -326 0
-54 -52 326 0
56 55 186 0
56 -55 -186 0
-56 55 -186 0
-56 -55 186 0
57 55 281 0
57 -55 -281 0
-57 55 -281 0
-57 -55 281 0
58 55 334 0
58 -55 -334 0
-58 55 -334 0
-58 -55 334 0
59 55 338 0
59 -55 -338 0
-59 55 -338 0
-59 -55 338 0
60 55 417 0
60 -55 -417 0
-60 55 -417 0
-60 -55 417 0
62 61 195 0
62 -61 -195 0
-62 61 -195 0
-62 -61 195 0
63 61 255 0
63 -61 -255 0
-63 61 -255 0
-63 -61 255 0
64 61 357 0
64 -61 -357 0
-64 61 -357 0
-64 -61 357 0
65 61 434 0
65 -61 -434 0
-65 61 -434 0
-65 -61 434 0
67 66 122 0
67 -66 -122 0
-67 66 -122 0
-67 -66 122 0
68 66 225 0
68 -66 -225 0
-68 66 -225 0
-68 -66 225 0
69 66 255 0
69 -66 -255 0
-69 66 -255 0
-69 -66 255 0
70 66 303 0
70 -66 -303 0
-70 66 -303 0
-70 -66 303 0
71 66 358 0
71 -66 -358 0
-71 66 -358 0
-71 -66 358 0
72 66 459 0
72 -66 -459 0
-72 66 -459 0
-72 -66 459 0
74 73 174 0
74 -73 -174 0
-74 73 -174 0
-74 -73 174 0
75 73 454 0
75 -73 -454 0
-75 73 -454 0
-75 -73 454 0
76 73 457 0
76 -73 -457 0
-76 73 -457 0
-76 -73 457 0
78 77 157 0
78 -77 -157 0
-78 77 -157 0
-78 -77 157 0
79 77 306 0
79 -77 -306 0
-79 77 -306 0
-79 -77 306 0
82 81 92 0
82 -81 -92 0
-82 81 -92 0
-82 -81 92 0
83 81 225 0
83 -81 -225 0
-83 81 -225 0
-83 -81 225 0
84 81 287 0
84 -81 -287 0
-84 81 -287 0
-84 -81 287 0
85 81 318 0
85 -81 -318 0
-85 81 -318 0
-85 -81 318 0
86 81 384 0
86 -81 -384 0
-86 81 -384 0
-86 -81 384 0
87 81 434 0
87 -81 -434 0
-87 81 -434 0
-87 -81 434 0
88 81 453 0
88 -81 -453 0
-88 81 -453 0
-88 -81 453 0
89 81 457 0
89 -81 -457 0
-89 81 -457 0
-89 -81 457 0
90 81 458 0
90 -81 -458 0
-90 81 -458 0
-90 -81 458 0
91 81 462 0
91 -81 -462 0
-91 81 -462 0
-91 -81 462 0
93 92 186 0
93 -92 -186 0
-93 92 -186 0
-93 -92 186 0
94 92 200 0
94 -92 -200 0
-94 92 -200 0
-94 -92 200 0
95 92 225 0
95 -92 -225 0
-95 92 -225 0
-95 -92 225 0
96 92 303 0
96 -92 -303 0
-96 92 -303 0
-96 -92 303 0
97 92 434 0
97 -92 -434 0
-97 92 -434 0
-97 -92 434 0
98 92 465 0
98 -92 -465 0
-98 92 -465 0
-98 -92 465 0
100 99 330 0
100 -99 -330 0
-100 99 -330 0
-100 -99 330 0
101 99 413 0
101 -99 -413 0
-101 99 -413 0
-101 -99 413 0
103 102 152 0
103 -102 -152 0
-103 102 -152 0
-103 -102 152 0
104 102 225 0
104 -102 -225 0
-104 102 -225 0
-104 -102 225 0
105 102 290 0
105 -102 -290 0
-105 102 -290 0
-105 -102 290 0
106 102 349 0
106 -102 -349 0
-106 102 -349 0
-106 -102 349 0
108 107 338 0
108 -107 -338 0
-108 107 -338 0
-108 -107 338 0
109 107 390 0
109 -107 -390 0
-109 107 -390 0
-109 -107 390 0
110 107 406 0
110 -107 -406 0
-110 107 -406 0
-110 -107 406 0
111 107 437 0
111 -107 -437 0
-111 107 -437 0
-111 -107 437 0
112 107 453 0
112 -107 -453 0
-112 107 -453 0
-112 -107 453 0
114 113 177 0
114 -113 -177 0
-114 113 -177 0
-114 -113 177 0
115 113 390 0
115 -113 -390 0
-115 113 -390 0
-115 -113 390 0
116 113 412 0
116 -113 -412 0
-116 113 -412 0
-116 -113 412 0
117 113 446 0
117 -113 -446 0
-117 113 -446 0
-117 -113 446 0
119 118 257 0
119 -118 -257 0
-119 118 -257 0
-119 -118 257 0
120 118 347 0
120 -118 -347 0
-120 118 -347 0
-120 -118 347 0
121 118 452 0
121 -118 -452 0
-121 118 -452 0
-121 -118 452 0
123 122 217 0
123 -122 -217 0
-123 122 -217 0
-123 -122 217 0
124 122 306 0
124 -122 -306 0
-124 122 -306 0
-124 -122 306 0
126 125 160 0
126 -125 -160 0
-126 125 -160 0
-126 -125 160 0
127 125 186 0
127 -125 -186 0
-127 125 -186 0
-127 -125 186 0
128 125 228 0
128 -125 -228 0
-128 125 -228 0
-128 -125 228 0
129 125 344 0
129 -125 -344 0
-129 125 -344 0
-129 -125 344 0
130 125 376 0
130 -125 -376 0
-130 125 -376 0
-130 -125 376 0
132 131 314 0
132 -131 -314 0
-132 131 -314 0
-132 -131 314 0
133 131 366 0
133 -131 -366 0
-133 131 -366 0
-133 -131 366 0
134 131 389 0
134 -131 -389 0
-134 131 -389 0
-134 -131 389 0
135 131 406 0
135 -131 -406 0
-135 131 -406 0
-135 -131 406 0
136 131 461 0
136 -131 -461 0
-136 131 -461 0
-136 -131 461 0
138 137 174 0
138 -137 -174 0
-138 137 -174 0
-138 -137 174 0
139 137 300 0
139 -137 -300 0
-139 137 -300 0
-139 -137 300 0
140 137 389 0
140 -137 -389 0
-140 137 -389 0
-140 -137 389 0
141 137 395 0
141 -137 -395 0
-141 137 -395 0
-141 -137 395 0
142 137 399 0
142 -137 -399 0
-142 137 -399 0
-142 -137 399 0
143 137 449 0
143 -137 -449 0
-143 137 -449 0
-143 -137 449 0
144 137 454 0
144 -137 -454 0
-144 137 -454 0
-144 -137 454 0
147 146 261 0
147 -146 -261 0
-147 146 -261 0
-147 -146 261 0
150 149 387 0
150 -149 -387 0
-150 149 -387 0
-150 -149 387 0
151 149 403 0
151 -149 -403 0
-151 149 -403 0
-151 -149 403 0
153 152 239 0
153 -152 -239 0
-153 152 -239 0
-153 -152 239 0
154 152 303 0
154 -152 -303 0
-154 152 -303 0
-154 -152 303 0
155 152 309 0
155 -152 -309 0
-155 152 -309 0
-155 -152 309 0
156 152 357 0
156 -152 -357 0
-156 152 -357 0
-156 -152 357 0
158 157 171 0
158 -157 -171 0
-158 157 -171 0
-158 -157 171 0
159 157 349 0
159 -157 -349 0
-159 157 -349 0
-159 -157 349 0
161 160 276 0
161 -160 -276 0
-161 160 -276 0
-161 -160 276 0
162 160 281 0
162 -160 -281 0
-162 160 -281 0
-162 -160 281 0
163 160 299 0
163 -160 -299 0
-163 160 -299 0
-163 -160 299 0
164 160 423 0
164 -160 -423 0
-164 160 -423 0
-164 -160 423 0
165 160 437 0
165 -160 -437 0
-165 160 -437 0
-165 -160 437 0
166 160 451 0
166 -160 -451 0
-166 160 -451 0
-166 -160 451 0
168 167 281 0
168 -167 -281 0
-168 167 -281 0
-168 -167 281 0
169 167 390 0
169 -167 -390 0
-169 167 -390 0
-169 -167 390 0
170 167 415 0
170 -167 -415 0
-170 167 -415 0
-170 -167 415 0
172 171 287 0
172 -171 -287 0
-172 171 -287 0
-172 -171 287 0
173 171 410 0
173 -171 -410 0
-173 171 -410 0
-173 -171 410 0
175 174 206 0
175 -174 -206 0
-175 174 -206 0
-175 -174 206 0
176 174 417 0
176 -174 -417 0
-176 174 -417 0
-176 -174 417 0
178 177 257 0
178 -177 -257 0
-178 177 -257 0
-178 -177 257 0
179 177 313 0
179 -177 -313 0
-179 177 -313 0
-179 -177 313 0
180 177 395 0
180 -177 -395 0
-180 177 -395 0
-180 -177 395 0
181 177 442 0
181 -177 -442 0
-181 177 -442 0
-181 -177 442 0
182 177 453 0
182 -177 -453 0
-182 177 -453 0
-182 -177 453 0
184 183 322 0
184 -183 -322 0
-184 183 -322 0
-184 -183 322 0
185 183 410 0
185 -183 -410 0
-185 183 -410 0
-185 -183 410 0
187 186 243 0
187 -186 -243 0
-187 186 -243 0
-187 -186 243 0
188 186 273 0
188 -186 -273 0
-188 186 -273 0
-188 -186 273 0
189 186 300 0
189 -186 -300 0
-189 186 -300 0
-189 -186 300 0
190 186 357 0
190 -186 -357 0
-190 186 -357 0
-190 -186 357 0
192 191 239 0
192 -191 -239 0
-192 191 -239 0
-192 -191 239 0
193 191 386 0
193 -191 -386 0
-193 191 -386 0
-193 -191 386 0
194 191 429 0
194 -191 -429 0
-194 191 -429 0
-194 -191 429 0
196 195 386 0
196 -195 -386 0
-196 195 -386 0
-196 -195 386 0
197 195 433 0
197 -195 -433 0
-197 195 -433 0
-197 -195 433 0
198 195 453 0
198 -195 -453 0
-198 195 -453 0
-198 -195 453 0
199 195 469 0
199 -195 -469 0
-199 195 -469 0
-199 -195 469 0
201 200 222 0
201 -200 -222 0
-201 200 -222 0
-201 -200 222 0
202 200 239 0
202 -200 -239 0
-202 200 -239 0
-202 -200 239 0
203 200 255 0
203 -200 -255 0
-203 200 -255 0
-203 -200 255 0
204 200 324 0
204 -200 -324 0
-204 200 -324 0
-204 -200 324 0
205 200 395 0
205 -200 -395 0
-205 200 -395 0
-205 -200 395 0
207 206 295 0
207 -206 -295 0
-207 206 -295 0
-207 -206 295 0
208 206 340 0
208 -206 -340 0
-208 206 -340 0
-208 -206 340 0
209 206 359 0
209 -206 -359 0
-209 206 -359 0
-209 -206 359 0
210 206 399 0
210 -206 -399 0
-210 206 -399 0
-210 -206 399 0
211 206 458 0
211 -206 -458 0
-211 206 -458 0
-211 -206 458 0
213 212 335 0
213 -212 -335 0
-213 212 -335 0
-213 -212 335 0
214 212 412 0
214 -212 -412 0
-214 212 -412 0
-214 -212 412 0
215 212 451 0
215 -212 -451 0
-215 212 -451 0
-215 -212 451 0
216 212 466 0
216 -212 -466 0
-216 212 -466 0
-216 -212 466 0
218 217 269 0
218 -217 -269 0
-218 217 -269 0
-218 -217 269 0
219 217 318 0
219 -217 -318 0
-219 217 -318 0
-219 -217 318 0
220 217 434 0
220 -217 -434 0
-220 217 -434 0
-220 -217 434 0
221 217 469 0
221 -217 -469 0
-221 217 -469 0
-221 -217 469 0
223 222 412 0
223 -222 -412 0
-223 222 -412 0
-223 -222 412 0
224 222 431 0
224 -222 -431 0
-224 222 -431 0
-224 -222 431 0
226 225 303 0
226 -225 -303 0
-226 225 -303 0
-226 -225 303 0
227 225 306 0
227 -225 -306 0
-227 225 -306 0
-227 -225 306 0
229 228 287 0
229 -228 -287 0
-229 228 -287 0
-229 -228 287 0
230 228 446 0
230 -228 -446 0
-230 228 -446 0
-230 -228 446 0
231 228 449 0
231 -228 -449 0
-231 228 -449 0
-231 -228 449 0
232 228 461 0
232 -228 -461 0
-232 228 -461 0
-232 -228 461 0
234 233 257 0
234 -233 -257 0
-234 233 -257 0
-234 -233 257 0
235 233 375 0
235 -233 -375 0
-235 233 -375 0
-235 -233 375 0
236 233 389 0
236 -233 -389 0
-236 233 -389 0
-236 -233 389 0
237 233 445 0
237 -233 -445 0
-237 233 -445 0
-237 -233 445 0
238 233 469 0
238 -233 -469 0
-238 233 -469 0
-238 -233 469 0
240 239 461 0
240 -239 -461 0
-240 239 -461 0
-240 -239 461 0
242 241 389 0
242 -241 -389 0
-242 241 -389 0
-242 -241 389 0
244 243 249 0
244 -243 -249 0
-244 243 -249 0
-244 -243 249 0
245 243 269 0
245 -243 -269 0
-245 243 -269 0
-245 -243 269 0
246 243 276 0
246 -243 -276 0
-246 243 -276 0
-246 -243 276 0
247 243 326 0
247 -243 -326 0
-247 243 -326 0
-247 -243 326 0
248 243 395 0
248 -243 -395 0
-248 243 -395 0
-248 -243 395 0
250 249 306 0
250 -249 -306 0
-250 249 -306 0
-250 -249 306 0
251 249 313 0
251 -249 -313 0
-251 249 -313 0
-251 -249 313 0
252 249 374 0
252 -249 -374 0
-252 249 -374 0
-252 -249 374 0
253 249 423 0
253 -249 -423 0
-253 249 -423 0
-253 -249 423 0
254 249 440 0
254 -249 -440 0
-254 249 -440 0
-254 -249 440 0
256 255 395 0
256 -255 -395 0
-256 255 -395 0
-256 -255 395 0
258 257 334 0
258 -257 -334 0
-258 257 -334 0
-258 -257 334 0
259 257 376 0
259 -257 -376 0
-259 257 -376 0
-259 -257 376 0
260 257 459 0
260 -257 -459 0
-260 257 -459 0
-260 -257 459 0
262 261 299 0
262 -261 -299 0
-262 261 -299 0
-262 -261 299 0
263 261 370 0
263 -261 -370 0
-263 261 -370 0
-263 -261 370 0
264 261 410 0
264 -261 -410 0
-264 261 -410 0
-264 -261 410 0
265 261 420 0
265 -261 -420 0
-265 261 -420 0
-265 -261 420 0
266 261 452 0
266 -261 -452 0
-266 261 -452 0
-266 -261 452 0
268 267 431 0
268 -267 -431 0
-268 267 -431 0
-268 -267 431 0
270 269 456 0
270 -269 -456 0
-270 269 -456 0
-270 -269 456 0
272 271 359 0
272 -271 -359 0
-272 271 -359 0
-272 -271 359 0
274 273 440 0
274 -273 -440 0
-274 273 -440 0
-274 -273 440 0
275 273 457 0
275 -273 -457 0
-275 273 -457 0
-275 -273 457 0
277 276 412 0
277 -276 -412 0
-277 276 -412 0
-277 -276 412 0
279 278 287 0
279 -278 -287 0
-279 278 -287 0
-279 -278 287 0
280 278 445 0
280 -278 -445 0
-280 278 -445 0
-280 -278 445 0
282 281 335 0
282 -281 -335 0
-282 281 -335 0
-282 -281 335 0
283 281 424 0
283 -281 -424 0
-283 281 -424 0
-283 -281 424 0
284 281 432 0
284 -281 -432 0
-284 281 -432 0
-284 -281 432 0
285 281 456 0
285 -281 -456 0
-285 281 -456 0
-285 -281 456 0
286 281 462 0
286 -281 -462 0
-286 281 -462 0
-286 -281 462 0
288 287 303 0
288 -287 -303 0
-288 287 -303 0
-288 -287 303 0
289 287 468 0
289 -287 -468 0
-289 287 -468 0
-289 -287 468 0
291 290 340 0
291 -290 -340 0
-291 290 -340 0
-291 -290 340 0
292 290 376 0
292 -290 -376 0
-292 290 -376 0
-292 -290 376 0
293 290 432 0
293 -290 -432 0
-293 290 -432 0
-293 -290 432 0
294 290 439 0
294 -290 -439 0
-294 290 -439 0
-294 -290 439 0
296 295 313 0
296 -295 -313 0
-296 295 -313 0
-296 -295 313 0
297 295 358 0
297 -295 -358 0
-297 295 -358 0
-297 -295 358 0
298 295 412 0
298 -295 -412 0
-298 295 -412 0
-298 -295 412 0
302 301 466 0
302 -301 -466 0
-302 301 -466 0
-302 -301 466 0
304 303 327 0
304 -303 -327 0
-304 303 -327 0
-304 -303 327 0
305 303 469 0
305 -303 -469 0
-305 303 -469 0
-305 -303 469 0
307 306 354 0
307 -306 -354 0
-307 306 -354 0
-307 -306 354 0
308 306 453 0
308 -306 -453 0
-308 306 -453 0
-308 -306 453 0
310 309 335 0
310 -309 -335 0
-310 309 -335 0
-310 -309 335 0
311 309 363 0
311 -309 -363 0
-311 309 -363 0
-311 -309 363 0
312 309 386 0
312 -309 -386 0
-312 309 -386 0
-312 -309 386 0
315 314 361 0
315 -314 -361 0
-315 314 -361 0
-315 -314 361 0
316 314 412 0
316 -314 -412 0
-316 314 -412 0
-316 -314 412 0
317 314 431 0
317 -314 -431 0
-317 314 -431 0
-317 -314 431 0
319 318 366 0
319 -318 -366 0
-319 318 -366 0
-319 -318 366 0
320 318 390 0
320 -318 -390 0
-320 318 -390 0
-320 -318 390 0
321 318 434 0
321 -318 -434 0
-321 318 -434 0
-321 -318 434 0
323 322 425 0
323 -322 -425 0
-323 322 -425 0
-323 -322 425 0
325 324 375 0
325 -324 -375 0
-325 324 -375 0
-325 -324 375 0
328 327 384 0
328 -327 -384 0
-328 327 -384 0
-328 -327 384 0
329 327 465 0
329 -327 -465 0
-329 327 -465 0
-329 -327 465 0
331 330 374 0
331 -330 -374 0
-331 330 -374 0
-331 -330 374 0
332 330 439 0
332 -330 -439 0
-332 330 -439 0
-332 -330 439 0
333 330 467 0
333 -330 -467 0
-333 330 -467 0
-333 -330 467 0
336 335 408 0
336 -335 -408 0
-336 335 -408 0
-336 -335 408 0
337 335 457 0
337 -335 -457 0
-337 335 -457 0
-337 -335 457 0
339 338 458 0
339 -338 -458 0
-339 338 -458 0
-339 -338 458 0
341 340 385 0
341 -340 -385 0
-341 340 -385 0
-341 -340 385 0
342 340 432 0
342 -340 -432 0
-342 340 -432 0
-342 -340 432 0
343 340 459 0
343 -340 -459 0
-343 340 -459 0
-343 -340 459 0
345 344 433 0
345 -344 -433 0
-345 344 -433 0
-345 -344 433 0
346 344 456 0
346 -344 -456 0
-346 344 -456 0
-346 -344 456 0
348 347 390 0
348 -347 -390 0
-348 347 -390 0
-348 -347 390 0
350 349 406 0
350 -349 -406 0
-350 349 -406 0
-350 -349 406 0
351 349 415 0
351 -349 -415 0
-351 349 -415 0
-351 -349 415 0
352 349 451 0
352 -349 -451 0
-352 349 -451 0
-352 -349 451 0
353 349 461 0
353 -349 -461 0
-353 349 -461 0
-353 -349 461 0
355 354 403 0
355 -354 -403 0
-355 354 -403 0
-355 -354 403 0
356 354 445 0
356 -354 -445 0
-356 354 -445 0
-356 -354 445 0
360 359 433 0
360 -359 -433 0
-360 359 -433 0
-360 -359 433 0
362 361 448 0
362 -361 -448 0
-362 361 -448 0
-362 -361 448 0
364 363 417 0
364 -363 -417 0
-364 363 -417 0
-364 -363 417 0
365 363 454 0
365 -363 -454 0
-365 363 -454 0
-365 -363 454 0
367 366 399 0
367 -366 -399 0
-367 366 -399 0
-367 -366 399 0
368 366 434 0
368 -366 -434 0
-368 366 -434 0
-368 -366 434 0
369 366 454 0
369 -366 -454 0
-369 366 -454 0
-369 -366 454 0
371 370 378 0
371 -370 -378 0
-371 370 -378 0
-371 -370 378 0
372 370 387 0
372 -370 -387 0
-372 370 -387 0
-372 -370 387 0
373 370 439 0
373 -370 -439 0
-373 370 -439 0
-373 -370 439 0
377 376 431 0
377 -376 -431 0
-377 376 -431 0
-377 -376 431 0
379 378 403 0
379 -378 -403 0
-379 378 -403 0
-379 -378 403 0
380 378 415 0
380 -378 -415 0
-380 378 -415 0
-380 -378 415 0
381 378 440 0
381 -378 -440 0
-381 378 -440 0
-381 -378 440 0
382 378 449 0
382 -378 -449 0
-382 378 -449 0
-382 -378 449 0
383 378 457 0
383 -378 -457 0
-383 378 -457 0
-383 -378 457 0
388 387 446 0
388 -387 -446 0
-388 387 -446 0
-388 -387 446 0
391 390 412 0
391 -390 -412 0
-391 390 -412 0
-391 -390 412 0
392 390 424 0
392 -390 -424 0
-392 390 -424 0
-392 -390 424 0
393 390 448 0
393 -390 -448 0
-393 390 -448 0
-393 -390 448 0
394 390 449 0
394 -390 -449 0
-394 390 -449 0
-394 -390 449 0
396 395 408 0
396 -395 -408 0
-396 395 -408 0
-396 -395 408 0
397 395 448 0
397 -395 -448 0
-397 395 -448 0
-397 -395 448 0
398 395 467 0
398 -395 -467 0
-398 395 -467 0
-398 -395 467 0
400 399 448 0
400 -399 -448 0
-400 399 -448 0
-400 -399 448 0
401 399 458 0
401 -399 -458 0
-401 399 -458 0
-401 -399 458 0
402 399 461 0
402 -399 -461 0
-402 399 -461 0
-402 -399 461 0
404 403 425 0
404 -403 -425 0
-404 403 -425 0
-404 -403 425 0
405 403 459 0
405 -403 -459 0
-405 403 -459 0
-405 -403 459 0
407 406 469 0
407 -406 -469 0
-407 406 -469 0
-407 -406 469 0
409 408 429 0
409 -408 -429 0
-409 408 -429 0
-409 -408 429 0
411 410 417 0
411 -410 -417 0
-411 410 -417 0
-411 -410 417 0
414 413 462 0
414 -413 -462 0
-414 413 -462 0
-414 -413 462 0
416 415 448 0
416 -415 -448 0
-416 415 -448 0
-416 -415 448 0
418 417 440 0
418 -417 -440 0
-418 417 -440 0
-418 -417 440 0
419 417 445 0
419 -417 -445 0
-419 417 -445 0
-419 -417 445 0
421 420 448 0
421 -420 -448 0
-421 420 -448 0
-421 -420 448 0
422 420 449 0
422 -420 -449 0
-422 420 -449 0
-422 -420 449 0
426 425 439 0
426 -425 -439 0
-426 425 -439 0
-426 -425 439 0
427 425 440 0
427 -425 -440 0
-427 425 -440 0
-427 -425 440 0
428 425 466 0
428 -425 -466 0
-428 425 -466 0
-428 -425 466 0
430 429 454 0
430 -429 -454 0
-430 429 -454 0
-430 -429 454 0
435 434 449 0
435 -434 -449 0
-435 434 -449 0
-435 -434 449 0
436 434 456 0
436 -434 -456 0
-436 434 -456 0
-436 -434 456 0
438 437 449 0
438 -437 -449 0
-438 437 -449 0
-438 -437 449 0
441 440 459 0
441 -440 -459 0
-441 440 -459 0
-441 -440 459 0
443 442 452 0
443 -442 -452 0
-443 442 -452 0
-443 -442 452 0
444 442 469 0
444 -442 -469 0
-444 442 -469 0
-444 -442 469 0
447 446 468 0
447 -446 -468 0
-447 446 -468 0
-447 -446 468 0
450 449 460 0
450 -449 -460 0
-450 449 -460 0
-450 -449 460 0
455 454 457 0
455 -454 -457 0
-455 454 -457 0
-455 -454 457 0
463 462 466 0
463 -462 -466 0
-463 462 -466 0
-463 -462 466 0
